Route #1: 1 37 30 25 17 8 5 19 2 1
Route #2: 1 15 7 21 20 32 35 18 1
Route #3: 1 36 26 28 33 1
Route #4: 1 31 16 13 23 24 29 3 1
Route #5: 1 9 4 6 34 10 22 1
Route #6: 1 14 12 11 27 1
cost 1098.5396690248974